\ This file has been generated by DOcplex
\ ENCODING=ISO-8859-1
\Problem name: recycling problem

Maximize
 obj: 15 aj_0 + 14.942170125000 aj_1 + 12.387264375000 aj_2
      + 15.650000000000 aj_3 + 16.219770125000 aj_4 + 13.673264375000 aj_5
      + 12.750000000000 aj_6 + 13.738170125000 aj_7 + 16.197264375000 aj_8
Subject To
 c1: - 2 aj_0 - 2 aj_2 - 2 aj_3 - 3 aj_4 + 3 aj_5 - 3 aj_6 + aj_7 - 2 aj_8
     + 2 a0_0 + 2 a0_1 + 3 a0_2 >= 0
 c2: - 2 aj_0 - 2 aj_2 - 2 aj_3 - 3 aj_4 + 3 aj_5 - 3 aj_6 + aj_7 - 2 aj_8
     + 3 a0_1 - a0_2 >= 0
 c3: - 2 aj_0 - 2 aj_2 - 2 aj_3 - 3 aj_4 + 3 aj_5 - 3 aj_6 + aj_7 - 2 aj_8
     + 2 a0_0 - 3 a0_1 + 2 a0_2 >= 0
 c4: aj_0 + aj_1 + aj_2 - a0_0 = 0
 c5: aj_3 + aj_4 + aj_5 - a0_1 = 0
 c6: aj_6 + aj_7 + aj_8 - a0_2 = 0
 c7: aj_0 + aj_1 + aj_2 + aj_3 + aj_4 + aj_5 + aj_6 + aj_7 + aj_8 = 1
 c8: aj_0 + aj_3 + aj_6 - a1_0 = 0
 c9: aj_1 + aj_4 + aj_7 - a1_1 = 0
 c10: aj_2 + aj_5 + aj_8 - a1_2 = 0

Bounds
       a0_0 <= 1
       a0_1 <= 1
       a0_2 <= 1
 0 <= a1_0 <= 1
 0 <= a1_1 <= 1
 0 <= a1_2 <= 1
       aj_0 <= 1
       aj_1 <= 1
       aj_2 <= 1
       aj_3 <= 1
       aj_4 <= 1
       aj_5 <= 1
       aj_6 <= 1
       aj_7 <= 1
       aj_8 <= 1

Binaries
 a1_0 a1_1 a1_2
End
